(set-logic QF_FP)
(set-option :produce-models true)
(set-info :source |Random FP created by PyMPF|)
(set-info :category random)
(set-info :status unsat)
(declare-const x Float32)
(assert (= x (fp #b0 #b00000000 #b10111100010101101100101)))
(declare-const y Float32)
(assert (= y ((_ to_fp 8 24) #x80800000)))
(declare-const z Float32)
(assert (= z (fp #b0 #b00111110 #b10011011110010011011001)))
(declare-const result Float32)
(assert (= result (fp.fma RNA x y z)))
(assert (not (= result (fp #b0 #b00111110 #b10011011110010011011001))))
(check-sat)
(exit)
